p cnf 145 444
c t mc
-3 1 0
-3 2 0
-1 -2 3 0
5 1 -6 0
-5 -1 -6 0
5 -1 6 0
-5 1 6 0
7 4 0
7 6 0
-4 -6 -7 0
3 -7 -8 0
-3 7 -8 0
3 7 8 0
-3 -7 8 0
-12 -10 0
-12 -11 0
10 11 12 0
9 -12 -13 0
-9 12 -13 0
9 12 13 0
-9 -12 13 0
11 -14 -15 0
-11 14 -15 0
11 14 15 0
-11 -14 15 0
16 5 0
16 15 0
-5 -15 -16 0
-20 18 0
-20 -19 0
-18 19 20 0
21 17 0
21 20 0
-17 -20 -21 0
22 20 0
22 2 0
-20 -2 -22 0
-21 -22 -23 0
21 22 -23 0
-21 22 23 0
21 -22 23 0
-23 -24 -25 0
23 24 -25 0
-23 24 25 0
23 -24 25 0
27 28 -29 0
-27 -28 -29 0
27 -28 29 0
-27 28 29 0
-30 29 0
-30 10 0
-29 -10 30 0
26 -30 -31 0
-26 30 -31 0
26 30 31 0
-26 -30 31 0
-32 -25 0
-32 31 0
25 -31 32 0
34 -9 0
34 -4 0
9 4 -34 0
-35 -33 0
-35 -34 0
33 34 35 0
36 -32 0
36 -35 0
32 35 -36 0
16 36 -37 0
-16 -36 -37 0
16 -36 37 0
-16 36 37 0
-38 -13 0
-38 -37 0
13 37 38 0
-8 38 -39 0
8 -38 -39 0
-8 -38 39 0
8 38 39 0
41 -30 0
41 -40 0
30 40 -41 0
-43 42 0
-43 33 0
-42 -33 43 0
12 17 -44 0
-12 -17 -44 0
12 -17 44 0
-12 17 44 0
45 -46 -47 0
-45 46 -47 0
45 46 47 0
-45 -46 47 0
-48 44 0
-48 47 0
-44 -47 48 0
49 -43 0
49 48 0
43 -48 -49 0
-51 33 0
-51 50 0
-33 -50 51 0
-53 51 0
-53 -52 0
-51 52 53 0
-53 5 -54 0
53 -5 -54 0
-53 -5 54 0
53 5 54 0
-55 -49 0
-55 -54 0
49 54 55 0
-33 -2 -56 0
33 2 -56 0
-33 2 56 0
33 -2 56 0
57 53 0
57 26 0
-53 -26 -57 0
-58 29 0
-58 -57 0
-29 57 58 0
59 -56 0
59 -58 0
56 58 -59 0
-60 55 0
-60 59 0
-55 -59 60 0
61 -41 0
61 -60 0
41 60 -61 0
-62 -42 0
-62 -42 0
42 62 0
-18 -40 -63 0
18 40 -63 0
-18 40 63 0
18 -40 63 0
65 -63 0
65 -64 0
63 64 -65 0
30 65 -66 0
-30 -65 -66 0
30 -65 66 0
-30 65 66 0
-45 -30 -67 0
45 30 -67 0
-45 30 67 0
45 -30 67 0
68 -15 0
68 23 0
15 -23 -68 0
-69 -67 0
-69 -68 0
67 68 69 0
-70 -69 0
-70 -69 0
69 70 0
71 66 0
71 70 0
-66 -70 -71 0
-72 62 0
-72 71 0
-62 -71 72 0
-73 30 0
-73 42 0
-30 -42 73 0
46 -26 -74 0
-46 26 -74 0
46 26 74 0
-46 -26 74 0
-75 -73 0
-75 74 0
73 -74 75 0
29 76 -77 0
-29 -76 -77 0
29 -76 77 0
-29 76 77 0
-78 -77 0
-78 -44 0
77 44 78 0
-42 27 -79 0
42 -27 -79 0
-42 -27 79 0
42 27 79 0
79 42 -80 0
-79 -42 -80 0
79 -42 80 0
-79 42 80 0
-81 26 0
-81 -80 0
-26 80 81 0
82 -81 0
82 65 0
81 -65 -82 0
-83 78 0
-83 82 0
-78 -82 83 0
23 65 -84 0
-23 -65 -84 0
23 -65 84 0
-23 65 84 0
85 -83 0
85 84 0
83 -84 -85 0
-75 85 -86 0
75 -85 -86 0
-75 -85 86 0
75 85 86 0
87 72 0
87 -86 0
-72 86 -87 0
-88 61 0
-88 87 0
-61 -87 88 0
89 -10 0
89 -58 0
10 58 -89 0
-12 -79 -90 0
12 79 -90 0
-12 79 90 0
12 -79 90 0
91 -89 0
91 90 0
89 -90 -91 0
-92 88 0
-92 91 0
-88 -91 92 0
93 9 0
93 -51 0
-9 51 -93 0
-94 -52 0
-94 -65 0
52 65 94 0
-94 46 -95 0
94 -46 -95 0
-94 -46 95 0
94 46 95 0
93 95 -96 0
-93 -95 -96 0
93 -95 96 0
-93 95 96 0
97 -33 0
97 -9 0
33 9 -97 0
-98 97 0
-98 -20 0
-97 20 98 0
-96 -98 -99 0
96 98 -99 0
-96 98 99 0
96 -98 99 0
-100 -10 0
-100 10 0
101 11 0
101 -97 0
-11 97 -101 0
-102 100 0
-102 -101 0
-100 101 102 0
-99 -102 -103 0
99 102 -103 0
-99 102 103 0
99 -102 103 0
22 -5 -104 0
-22 5 -104 0
22 5 104 0
-22 -5 104 0
-22 18 -105 0
22 -18 -105 0
-22 -18 105 0
22 18 105 0
46 18 -106 0
-46 -18 -106 0
46 -18 106 0
-46 18 106 0
105 106 -107 0
-105 -106 -107 0
105 -106 107 0
-105 106 107 0
-108 23 0
-108 63 0
-23 -63 108 0
-109 19 0
-109 108 0
-19 -108 109 0
-110 -20 0
-110 19 0
20 -19 110 0
50 -68 -111 0
-50 68 -111 0
50 68 111 0
-50 -68 111 0
112 57 0
112 -29 0
-57 29 -112 0
113 111 0
113 112 0
-111 -112 -113 0
-113 40 -114 0
113 -40 -114 0
-113 -40 114 0
113 40 114 0
110 -114 -115 0
-110 114 -115 0
110 114 115 0
-110 -114 115 0
-116 -109 0
-116 115 0
109 -115 116 0
-117 -22 0
-117 67 0
22 -67 117 0
118 -117 0
118 117 0
119 116 0
119 118 0
-116 -118 -119 0
120 107 0
120 -119 0
-107 119 -120 0
104 120 -121 0
-104 -120 -121 0
104 -120 121 0
-104 120 121 0
-23 117 -122 0
23 -117 -122 0
-23 -117 122 0
23 117 122 0
74 -122 -123 0
-74 122 -123 0
74 122 123 0
-74 -122 123 0
125 124 0
125 -58 0
-124 58 -125 0
-126 -117 0
-126 -19 0
117 19 126 0
125 -126 -127 0
-125 126 -127 0
125 126 127 0
-125 -126 127 0
128 -123 0
128 127 0
123 -127 -128 0
-40 19 -129 0
40 -19 -129 0
-40 -19 129 0
40 19 129 0
-130 26 0
-130 129 0
-26 -129 130 0
-112 -28 -131 0
112 28 -131 0
-112 28 131 0
112 -28 131 0
-132 51 0
-132 42 0
-51 -42 132 0
134 132 0
134 -133 0
-132 133 -134 0
-134 -24 -135 0
134 24 -135 0
-134 24 135 0
134 -24 135 0
136 -131 0
136 -135 0
131 135 -136 0
-137 130 0
-137 -136 0
-130 136 137 0
-138 -128 0
-138 137 0
128 -137 138 0
-139 -121 0
-139 138 0
121 -138 139 0
140 -103 0
140 139 0
103 -139 -140 0
92 140 -141 0
-92 -140 -141 0
92 -140 141 0
-92 140 141 0
142 10 0
142 -53 0
-10 53 -142 0
143 34 0
143 142 0
-34 -142 -143 0
-141 143 -144 0
141 -143 -144 0
-141 -143 144 0
141 143 144 0
-145 -39 0
-145 144 0
39 -144 145 0
73 -74 -32 90 40 -79 12 0
-145 -49 -12 125 48 -47 -35 89 -78 110 0
99 -51 1 -13 66 -20 -128 132 115 0
-122 15 -12 -136 -33 -57 -22 -143 0
74 -5 46 8 -27 0
-49 -101 -34 38 27 -121 -43 -31 0
-102 105 76 -5 -75 79 0
121 -82 -84 41 -126 0
140 -109 27 -37 0
34 -10 17 -52 27 8 0
127 6 -137 -134 37 -31 41 90 48 -65 0
-44 43 -16 -69 27 -30 33 0
-77 -8 56 128 0
117 26 -99 0
50 -107 -92 0
123 -9 10 0
135 96 -89 -54 -125 0
-13 52 -14 11 35 -134 -91 0
-2 6 -15 67 16 -26 118 -13 19 -136 0
-21 -119 20 -40 49 86 0
140 136 -29 2 -20 78 95 -119 3 0
7 -105 138 -123 60 0
122 -48 -20 -16 0
-108 -48 -36 -102 -91 124 -79 -16 -26 122 0
-66 9 120 0
24 -78 10 0
-52 14 -6 -44 122 43 76 -84 -82 0
96 -55 24 -141 133 -139 104 -108 0
-62 82 9 -85 -69 79 0
123 -76 -115 -134 -15 71 144 0
24 -91 25 -140 -49 61 0
102 86 -35 14 39 -52 -125 23 0
-8 112 4 130 72 87 -65 116 0
-103 123 61 -72 -71 -8 0
-115 141 -106 0
80 41 -21 -109 59 35 0
100 -58 -116 66 -78 85 -65 23 0
135 -143 64 -121 19 63 0
135 99 84 7 -78 0
113 -130 -104 24 85 -5 46 -123 4 0
93 10 -83 143 109 104 140 -134 32 0
131 -115 -54 -25 0
17 -54 24 -115 0
-4 -143 115 96 0
145 0
